sat
((rprim_1_1 18))
((rprim_1_2 1))
((rprim_1_3 1))
((rprim_1_4 20))
((rprim_1_5 16))
((rprim_1_6 1))
((rprim_1_7 1))
((rprim_1_8 18))
((rprim_1_9 13))
((rprim_1_10 1))
((rprim_1_11 14))
((rprim_1_12 18))
((rprim_1_13 1))
((rprim_1_14 16))
((rprim_1_15 1))
((rprim_1_16 19))
((rprim_1_17 7))
((rprim_1_18 1))
((rprim_1_19 16))
((rprim_1_20 20))
((rprim_1_21 1))
((rprim_1_22 1))
((rprim_1_23 1))
((rprim_1_24 1))
((rprim_1_25 18))
((rprim_1_26 14))
((rprim_1_27 1))
((rprim_1_28 17))
((rprim_1_29 18))
((rprim_1_30 14))
((rprim_1_31 1))
((rprim_1_32 1))
((rprim_1_33 16))
((rprim_1_34 20))
((rprim_1_35 16))
((rprim_1_36 1))
((rprim_1_37 1))
((rprim_1_38 20))
((rprim_1_39 1))
((rprim_1_40 1))
((rprim_1_41 14))
((rprim_1_42 15))
((rprim_1_43 1))
((rprim_1_44 1))
((rcost_1_1 4.0))
((rcost_1_2 0.0))
((rcost_1_3 0.0))
((rcost_1_4 4.0))
((rcost_1_5 4.0))
((rcost_1_6 0.0))
((rcost_1_7 0.0))
((rcost_1_8 4.0))
((rcost_1_9 3.0))
((rcost_1_10 0.0))
((rcost_1_11 4.0))
((rcost_1_12 4.0))
((rcost_1_13 0.0))
((rcost_1_14 4.0))
((rcost_1_15 0.0))
((rcost_1_16 4.0))
((rcost_1_17 3.0))
((rcost_1_18 0.0))
((rcost_1_19 4.0))
((rcost_1_20 4.0))
((rcost_1_21 0.0))
((rcost_1_22 0.0))
((rcost_1_23 0.0))
((rcost_1_24 0.0))
((rcost_1_25 4.0))
((rcost_1_26 4.0))
((rcost_1_27 0.0))
((rcost_1_28 4.0))
((rcost_1_29 4.0))
((rcost_1_30 4.0))
((rcost_1_31 0.0))
((rcost_1_32 0.0))
((rcost_1_33 4.0))
((rcost_1_34 4.0))
((rcost_1_35 4.0))
((rcost_1_36 0.0))
((rcost_1_37 0.0))
((rcost_1_38 4.0))
((rcost_1_39 0.0))
((rcost_1_40 0.0))
((rcost_1_41 4.0))
((rcost_1_42 4.0))
((rcost_1_43 0.0))
((rcost_1_44 0.0))
((rx_1_1 7))
((ry_1_1 8))
((rx_1_2 10))
((ry_1_2 8))
((rx_1_3 10))
((ry_1_3 8))
((rx_1_4 10))
((ry_1_4 8))
((rx_1_5 7))
((ry_1_5 8))
((rx_1_6 5))
((ry_1_6 6))
((rx_1_7 5))
((ry_1_7 6))
((rx_1_8 5))
((ry_1_8 6))
((rx_1_9 8))
((ry_1_9 6))
((rx_1_10 8))
((ry_1_10 4))
((rx_1_11 8))
((ry_1_11 4))
((rx_1_12 10))
((ry_1_12 6))
((rx_1_13 13))
((ry_1_13 6))
((rx_1_14 13))
((ry_1_14 6))
((rx_1_15 11))
((ry_1_15 4))
((rx_1_16 11))
((ry_1_16 4))
((rx_1_17 11))
((ry_1_17 7))
((rx_1_18 10))
((ry_1_18 8))
((rx_1_19 10))
((ry_1_19 8))
((rx_1_20 8))
((ry_1_20 6))
((rx_1_21 5))
((ry_1_21 6))
((rx_1_22 5))
((ry_1_22 6))
((rx_1_23 5))
((ry_1_23 6))
((rx_1_24 5))
((ry_1_24 6))
((rx_1_25 5))
((ry_1_25 6))
((rx_1_26 8))
((ry_1_26 6))
((rx_1_27 10))
((ry_1_27 8))
((rx_1_28 10))
((ry_1_28 8))
((rx_1_29 12))
((ry_1_29 6))
((rx_1_30 15))
((ry_1_30 6))
((rx_1_31 17))
((ry_1_31 8))
((rx_1_32 17))
((ry_1_32 8))
((rx_1_33 17))
((ry_1_33 8))
((rx_1_34 15))
((ry_1_34 6))
((rx_1_35 12))
((ry_1_35 6))
((rx_1_36 10))
((ry_1_36 4))
((rx_1_37 10))
((ry_1_37 4))
((rx_1_38 10))
((ry_1_38 4))
((rx_1_39 7))
((ry_1_39 4))
((rx_1_40 7))
((ry_1_40 4))
((rx_1_41 7))
((ry_1_41 4))
((rx_1_42 9))
((ry_1_42 6))
((rx_1_43 7))
((ry_1_43 8))
((rx_1_44 7))
((ry_1_44 8))
((rx_1_45 7))
((ry_1_45 8))
((rechassigned_1_1 0))
((rechassigned_1_2 0))
((rechassigned_1_3 0))
((rechassigned_1_4 0))
((rechassigned_1_5 0))
((rechassigned_1_6 1))
((rechassigned_1_7 0))
((rechassigned_1_8 0))
((rechassigned_1_9 0))
((rechassigned_1_10 1))
((rechassigned_1_11 0))
((rechassigned_1_12 0))
((rechassigned_1_13 0))
((rechassigned_1_14 0))
((rechassigned_1_15 0))
((rechassigned_1_16 0))
((rechassigned_1_17 0))
((rechassigned_1_18 0))
((rechassigned_1_19 0))
((rechassigned_1_20 0))
((rechassigned_1_21 1))
((rechassigned_1_22 1))
((rechassigned_1_23 0))
((rechassigned_1_24 0))
((rechassigned_1_25 0))
((rechassigned_1_26 0))
((rechassigned_1_27 0))
((rechassigned_1_28 0))
((rechassigned_1_29 0))
((rechassigned_1_30 2))
((rechassigned_1_31 2))
((rechassigned_1_32 2))
((rechassigned_1_33 2))
((rechassigned_1_34 2))
((rechassigned_1_35 2))
((rechassigned_1_36 2))
((rechassigned_1_37 2))
((rechassigned_1_38 2))
((rechassigned_1_39 1))
((rechassigned_1_40 1))
((rechassigned_1_41 2))
((rechassigned_1_42 2))
((rechassigned_1_43 2))
((rechassigned_1_44 2))
((rechassigned_1_45 0))
((rechassigned_2_1 0))
((rechassigned_2_2 0))
((rechassigned_2_3 0))
((rechassigned_2_4 0))
((rechassigned_2_5 0))
((rechassigned_2_6 0))
((rechassigned_2_7 0))
((rechassigned_2_8 0))
((rechassigned_2_9 0))
((rechassigned_2_10 0))
((rechassigned_2_11 0))
((rechassigned_2_12 0))
((rechassigned_2_13 1))
((rechassigned_2_14 0))
((rechassigned_2_15 1))
((rechassigned_2_16 0))
((rechassigned_2_17 0))
((rechassigned_2_18 0))
((rechassigned_2_19 0))
((rechassigned_2_20 0))
((rechassigned_2_21 0))
((rechassigned_2_22 0))
((rechassigned_2_23 0))
((rechassigned_2_24 0))
((rechassigned_2_25 0))
((rechassigned_2_26 0))
((rechassigned_2_27 0))
((rechassigned_2_28 0))
((rechassigned_2_29 0))
((rechassigned_2_30 2))
((rechassigned_2_31 2))
((rechassigned_2_32 2))
((rechassigned_2_33 2))
((rechassigned_2_34 2))
((rechassigned_2_35 2))
((rechassigned_2_36 1))
((rechassigned_2_37 1))
((rechassigned_2_38 2))
((rechassigned_2_39 2))
((rechassigned_2_40 2))
((rechassigned_2_41 2))
((rechassigned_2_42 2))
((rechassigned_2_43 2))
((rechassigned_2_44 2))
((rechassigned_2_45 0))
((rechassigned_3_1 0))
((rechassigned_3_2 0))
((rechassigned_3_3 1))
((rechassigned_3_4 0))
((rechassigned_3_5 0))
((rechassigned_3_6 0))
((rechassigned_3_7 0))
((rechassigned_3_8 0))
((rechassigned_3_9 0))
((rechassigned_3_10 0))
((rechassigned_3_11 0))
((rechassigned_3_12 0))
((rechassigned_3_13 1))
((rechassigned_3_14 0))
((rechassigned_3_15 0))
((rechassigned_3_16 0))
((rechassigned_3_17 0))
((rechassigned_3_18 1))
((rechassigned_3_19 0))
((rechassigned_3_20 0))
((rechassigned_3_21 0))
((rechassigned_3_22 0))
((rechassigned_3_23 0))
((rechassigned_3_24 0))
((rechassigned_3_25 0))
((rechassigned_3_26 0))
((rechassigned_3_27 1))
((rechassigned_3_28 0))
((rechassigned_3_29 0))
((rechassigned_3_30 2))
((rechassigned_3_31 1))
((rechassigned_3_32 1))
((rechassigned_3_33 2))
((rechassigned_3_34 2))
((rechassigned_3_35 2))
((rechassigned_3_36 2))
((rechassigned_3_37 2))
((rechassigned_3_38 2))
((rechassigned_3_39 2))
((rechassigned_3_40 2))
((rechassigned_3_41 2))
((rechassigned_3_42 2))
((rechassigned_3_43 2))
((rechassigned_3_44 2))
((rechassigned_3_45 0))
((rechassigned_4_1 0))
((rechassigned_4_2 0))
((rechassigned_4_3 0))
((rechassigned_4_4 0))
((rechassigned_4_5 0))
((rechassigned_4_6 1))
((rechassigned_4_7 0))
((rechassigned_4_8 0))
((rechassigned_4_9 0))
((rechassigned_4_10 0))
((rechassigned_4_11 0))
((rechassigned_4_12 0))
((rechassigned_4_13 0))
((rechassigned_4_14 0))
((rechassigned_4_15 0))
((rechassigned_4_16 0))
((rechassigned_4_17 0))
((rechassigned_4_18 0))
((rechassigned_4_19 0))
((rechassigned_4_20 0))
((rechassigned_4_21 0))
((rechassigned_4_22 1))
((rechassigned_4_23 0))
((rechassigned_4_24 0))
((rechassigned_4_25 0))
((rechassigned_4_26 0))
((rechassigned_4_27 0))
((rechassigned_4_28 0))
((rechassigned_4_29 0))
((rechassigned_4_30 2))
((rechassigned_4_31 2))
((rechassigned_4_32 2))
((rechassigned_4_33 2))
((rechassigned_4_34 2))
((rechassigned_4_35 2))
((rechassigned_4_36 2))
((rechassigned_4_37 2))
((rechassigned_4_38 2))
((rechassigned_4_39 2))
((rechassigned_4_40 2))
((rechassigned_4_41 2))
((rechassigned_4_42 2))
((rechassigned_4_43 1))
((rechassigned_4_44 1))
((rechassigned_4_45 0))
((total_rcost 0))
((lastrech_1_30 false))
((lastrech_1_31 false))
((lastrech_1_32 false))
((lastrech_1_33 false))
((lastrech_1_34 false))
((lastrech_1_35 false))
((lastrech_1_36 false))
((lastrech_1_37 false))
((lastrech_1_38 false))
((lastrech_1_39 true))
((lastrech_1_40 false))
((lastrech_1_41 false))
((lastrech_1_42 false))
((lastrech_1_43 false))
((lastrech_2_30 false))
((lastrech_2_31 false))
((lastrech_2_32 false))
((lastrech_2_33 false))
((lastrech_2_34 false))
((lastrech_2_35 false))
((lastrech_2_36 true))
((lastrech_2_37 false))
((lastrech_2_38 false))
((lastrech_2_39 false))
((lastrech_2_40 false))
((lastrech_2_41 false))
((lastrech_2_42 false))
((lastrech_2_43 false))
((lastrech_3_30 false))
((lastrech_3_31 true))
((lastrech_3_32 false))
((lastrech_3_33 false))
((lastrech_3_34 false))
((lastrech_3_35 false))
((lastrech_3_36 false))
((lastrech_3_37 false))
((lastrech_3_38 false))
((lastrech_3_39 false))
((lastrech_3_40 false))
((lastrech_3_41 false))
((lastrech_3_42 false))
((lastrech_3_43 false))
((lastrech_4_30 false))
((lastrech_4_31 false))
((lastrech_4_32 false))
((lastrech_4_33 false))
((lastrech_4_34 false))
((lastrech_4_35 false))
((lastrech_4_36 false))
((lastrech_4_37 false))
((lastrech_4_38 false))
((lastrech_4_39 false))
((lastrech_4_40 false))
((lastrech_4_41 false))
((lastrech_4_42 false))
((lastrech_4_43 true))
